NAME 
ROWS
 N  OBJ
 L  R0      
 L  R1      
 L  R2      
 E  R3      
 E  R4      
 E  R5      
 E  R6      
 E  R7      
 E  R8      
 E  R9      
 E  R10     
 E  R11     
 E  R12     
COLUMNS
    MARKER    'MARKER'                 'INTORG'
    I0(7)     OBJ       -196
    I0(7)     R0        150
    I0(7)     R1        -113
    I0(7)     R2        68
    I0(7)     R3        16
    I0(7)     R5        2
    I0(7)     R6        6
    I0(7)     R12       1
    I1(7)     OBJ       -33
    I1(7)     R0        110
    I1(7)     R1        -166
    I1(7)     R2        -34
    I1(7)     R3        14
    I1(7)     R4        8
    I1(7)     R5        9
    I1(7)     R12       1
    I2(8)     OBJ       -1
    I2(8)     R0        154
    I2(8)     R1        15
    I2(8)     R2        77
    I2(8)     R3        16
    I2(8)     R4        4
    I2(8)     R5        17
    I2(8)     R6        15
    I2(8)     R12       1
    I3(6)     OBJ       38
    I3(6)     R0        120
    I3(6)     R1        -21
    I3(6)     R2        -200
    I3(6)     R4        1
    I3(6)     R5        19
    I3(6)     R12       1
    MARKER    'MARKER'                 'INTEND'
    C4(6)     OBJ       5
    C4(6)     R0        -7
    C4(6)     R1        9
    C4(6)     R2        3
    C4(6)     R3        8
    C4(6)     R6        12
    C4(6)     R11       7
    C5(10)    OBJ       -5
    C5(10)    R0        -6
    C5(10)    R2        2
    C5(10)    R3        5
    C5(10)    R4        18
    C5(10)    R5        19
    C5(10)    R6        5
    C5(10)    R8        4
    C5(10)    R9        6
    C5(10)    R10       6
    C5(10)    R11       1
    C6(6)     OBJ       -7
    C6(6)     R0        -7
    C6(6)     R1        -9
    C6(6)     R2        -5
    C6(6)     R4        16
    C6(6)     R10       8
    C6(6)     R11       18
    C7(11)    R0        3
    C7(11)    R1        -7
    C7(11)    R2        5
    C7(11)    R4        4
    C7(11)    R5        2
    C7(11)    R6        11
    C7(11)    R7        14
    C7(11)    R8        3
    C7(11)    R9        15
    C7(11)    R10       4
    C7(11)    R11       12
    C8(9)     OBJ       -1
    C8(9)     R0        -10
    C8(9)     R1        5
    C8(9)     R2        2
    C8(9)     R3        19
    C8(9)     R4        17
    C8(9)     R8        9
    C8(9)     R9        7
    C8(9)     R10       12
    C8(9)     R11       -1
    C9(9)     OBJ       2
    C9(9)     R0        3
    C9(9)     R1        -4
    C9(9)     R2        2
    C9(9)     R3        15
    C9(9)     R6        3
    C9(9)     R8        10
    C9(9)     R9        19
    C9(9)     R10       17
    C9(9)     R11       9
    C10(1)    R3        1
    C11(1)    R4        1
    C12(1)    R5        1
    C13(1)    R6        1
    C14(1)    R7        1
    C15(1)    R8        1
    C16(1)    R9        1
    C17(1)    R10       1
    C18(1)    R11       1
    C19(1)    R12       1
RHS
    RHS1      R0        1.2028896103896105e+02
    RHS1      R1        -1.4563961038961040e+02
    RHS1      R2        5.1308441558441558e+01
    RHS1      R3        98
    RHS1      R4        71
    RHS1      R5        63
    RHS1      R6        69
    RHS1      R7        51
    RHS1      R8        54
    RHS1      R9        96
    RHS1      R10       70
    RHS1      R11       66
    RHS1      R12       1
BOUNDS
 UP BND1      I0(7)     2
 UP BND1      I1(7)     2
 UP BND1      I2(8)     2
 UP BND1      I3(6)     2
ENDATA
